1 1574 9
2 1426 9
3 1333 9
4 1234 9
12 1224 9
27 1193 9
52 1168 9
376 1154 9
891 1153 9



1 1605 10
2 1333 9
3 1257 9
4 1240 9
6 1182 9
19 1181 9
425 1178 9
433 1166 9
743 1159 9



1 1659 10
2 1355 9
4 1284 9
9 1227 9
33 1210 9
34 1204 9
61 1197 9
139 1196 9
141 1192 9
160 1179 9
170 1177 9
373 1173 9
378 1172 9
392 1159 9



1 1479 9
2 1338 9
3 1287 9
5 1264 9
6 1231 9
21 1230 9
37 1213 9
41 1181 9
51 1159 9
783 1155 9



1 1594 10
2 1414 9
3 1338 10
4 1285 9
9 1266 9
10 1263 9
11 1232 9
19 1197 9
24 1196 9
83 1160 9
640 1157 9



